p cnf 396 1702
1 49 0 
5 53 0 
9 57 0 
13 61 0 
17 65 0 
21 69 0 
25 73 0 
29 77 0 
33 81 0 
37 85 0 
41 89 0 
45 93 0 
2 50 0 
6 54 0 
10 58 0 
14 62 0 
18 66 0 
22 70 0 
26 74 0 
30 78 0 
34 82 0 
38 86 0 
42 90 0 
46 94 0 
3 51 0 
7 55 0 
11 59 0 
15 63 0 
19 67 0 
23 71 0 
27 75 0 
31 79 0 
35 83 0 
39 87 0 
43 91 0 
47 95 0 
4 52 0 
8 56 0 
12 60 0 
16 64 0 
20 68 0 
24 72 0 
28 76 0 
32 80 0 
36 84 0 
40 88 0 
44 92 0 
48 96 0 
-97 -1 -2 -3 -4 0 
-100 -5 -6 -7 -8 0 
-103 -9 -10 -11 -12 0 
-106 -13 -14 -15 -16 0 
-109 -17 -18 -19 -20 0 
-112 -21 -22 -23 -24 0 
-115 -25 -26 -27 -28 0 
-118 -29 -30 -31 -32 0 
-121 -33 -34 -35 -36 0 
-124 -37 -38 -39 -40 0 
-127 -41 -42 -43 -44 0 
-130 -45 -46 -47 -48 0 
-97 -1 -2 -3 -52 0 
-100 -5 -6 -7 -56 0 
-103 -9 -10 -11 -60 0 
-106 -13 -14 -15 -64 0 
-109 -17 -18 -19 -68 0 
-112 -21 -22 -23 -72 0 
-115 -25 -26 -27 -76 0 
-118 -29 -30 -31 -80 0 
-121 -33 -34 -35 -84 0 
-124 -37 -38 -39 -88 0 
-127 -41 -42 -43 -92 0 
-130 -45 -46 -47 -96 0 
-97 -1 -2 -51 -4 0 
-100 -5 -6 -55 -8 0 
-103 -9 -10 -59 -12 0 
-106 -13 -14 -63 -16 0 
-109 -17 -18 -67 -20 0 
-112 -21 -22 -71 -24 0 
-115 -25 -26 -75 -28 0 
-118 -29 -30 -79 -32 0 
-121 -33 -34 -83 -36 0 
-124 -37 -38 -87 -40 0 
-127 -41 -42 -91 -44 0 
-130 -45 -46 -95 -48 0 
-97 -1 -2 -51 -52 0 
-100 -5 -6 -55 -56 0 
-103 -9 -10 -59 -60 0 
-106 -13 -14 -63 -64 0 
-109 -17 -18 -67 -68 0 
-112 -21 -22 -71 -72 0 
-115 -25 -26 -75 -76 0 
-118 -29 -30 -79 -80 0 
-121 -33 -34 -83 -84 0 
-124 -37 -38 -87 -88 0 
-127 -41 -42 -91 -92 0 
-130 -45 -46 -95 -96 0 
-97 -1 -50 -3 -4 0 
-100 -5 -54 -7 -8 0 
-103 -9 -58 -11 -12 0 
-106 -13 -62 -15 -16 0 
-109 -17 -66 -19 -20 0 
-112 -21 -70 -23 -24 0 
-115 -25 -74 -27 -28 0 
-118 -29 -78 -31 -32 0 
-121 -33 -82 -35 -36 0 
-124 -37 -86 -39 -40 0 
-127 -41 -90 -43 -44 0 
-130 -45 -94 -47 -48 0 
-97 -1 -50 -3 -52 0 
-100 -5 -54 -7 -56 0 
-103 -9 -58 -11 -60 0 
-106 -13 -62 -15 -64 0 
-109 -17 -66 -19 -68 0 
-112 -21 -70 -23 -72 0 
-115 -25 -74 -27 -76 0 
-118 -29 -78 -31 -80 0 
-121 -33 -82 -35 -84 0 
-124 -37 -86 -39 -88 0 
-127 -41 -90 -43 -92 0 
-130 -45 -94 -47 -96 0 
-97 -1 -50 -51 -4 0 
-100 -5 -54 -55 -8 0 
-103 -9 -58 -59 -12 0 
-106 -13 -62 -63 -16 0 
-109 -17 -66 -67 -20 0 
-112 -21 -70 -71 -24 0 
-115 -25 -74 -75 -28 0 
-118 -29 -78 -79 -32 0 
-121 -33 -82 -83 -36 0 
-124 -37 -86 -87 -40 0 
-127 -41 -90 -91 -44 0 
-130 -45 -94 -95 -48 0 
-97 -49 -2 -3 -4 0 
-100 -53 -6 -7 -8 0 
-103 -57 -10 -11 -12 0 
-106 -61 -14 -15 -16 0 
-109 -65 -18 -19 -20 0 
-112 -69 -22 -23 -24 0 
-115 -73 -26 -27 -28 0 
-118 -77 -30 -31 -32 0 
-121 -81 -34 -35 -36 0 
-124 -85 -38 -39 -40 0 
-127 -89 -42 -43 -44 0 
-130 -93 -46 -47 -48 0 
-97 -49 -2 -3 -52 0 
-100 -53 -6 -7 -56 0 
-103 -57 -10 -11 -60 0 
-106 -61 -14 -15 -64 0 
-109 -65 -18 -19 -68 0 
-112 -69 -22 -23 -72 0 
-115 -73 -26 -27 -76 0 
-118 -77 -30 -31 -80 0 
-121 -81 -34 -35 -84 0 
-124 -85 -38 -39 -88 0 
-127 -89 -42 -43 -92 0 
-130 -93 -46 -47 -96 0 
-97 -49 -50 -3 -4 0 
-100 -53 -54 -7 -8 0 
-103 -57 -58 -11 -12 0 
-106 -61 -62 -15 -16 0 
-109 -65 -66 -19 -20 0 
-112 -69 -70 -23 -24 0 
-115 -73 -74 -27 -28 0 
-118 -77 -78 -31 -32 0 
-121 -81 -82 -35 -36 0 
-124 -85 -86 -39 -40 0 
-127 -89 -90 -43 -44 0 
-130 -93 -94 -47 -48 0 
-98 -1 -2 -3 -4 0 
-101 -5 -6 -7 -8 0 
-104 -9 -10 -11 -12 0 
-107 -13 -14 -15 -16 0 
-110 -17 -18 -19 -20 0 
-113 -21 -22 -23 -24 0 
-116 -25 -26 -27 -28 0 
-119 -29 -30 -31 -32 0 
-122 -33 -34 -35 -36 0 
-125 -37 -38 -39 -40 0 
-128 -41 -42 -43 -44 0 
-131 -45 -46 -47 -48 0 
-98 -1 -2 -3 -52 0 
-101 -5 -6 -7 -56 0 
-104 -9 -10 -11 -60 0 
-107 -13 -14 -15 -64 0 
-110 -17 -18 -19 -68 0 
-113 -21 -22 -23 -72 0 
-116 -25 -26 -27 -76 0 
-119 -29 -30 -31 -80 0 
-122 -33 -34 -35 -84 0 
-125 -37 -38 -39 -88 0 
-128 -41 -42 -43 -92 0 
-131 -45 -46 -47 -96 0 
-98 -1 -50 -3 -4 0 
-101 -5 -54 -7 -8 0 
-104 -9 -58 -11 -12 0 
-107 -13 -62 -15 -16 0 
-110 -17 -66 -19 -20 0 
-113 -21 -70 -23 -24 0 
-116 -25 -74 -27 -28 0 
-119 -29 -78 -31 -32 0 
-122 -33 -82 -35 -36 0 
-125 -37 -86 -39 -40 0 
-128 -41 -90 -43 -44 0 
-131 -45 -94 -47 -48 0 
-98 -1 -50 -51 -52 0 
-101 -5 -54 -55 -56 0 
-104 -9 -58 -59 -60 0 
-107 -13 -62 -63 -64 0 
-110 -17 -66 -67 -68 0 
-113 -21 -70 -71 -72 0 
-116 -25 -74 -75 -76 0 
-119 -29 -78 -79 -80 0 
-122 -33 -82 -83 -84 0 
-125 -37 -86 -87 -88 0 
-128 -41 -90 -91 -92 0 
-131 -45 -94 -95 -96 0 
-98 -49 -2 -51 -4 0 
-101 -53 -6 -55 -8 0 
-104 -57 -10 -59 -12 0 
-107 -61 -14 -63 -16 0 
-110 -65 -18 -67 -20 0 
-113 -69 -22 -71 -24 0 
-116 -73 -26 -75 -28 0 
-119 -77 -30 -79 -32 0 
-122 -81 -34 -83 -36 0 
-125 -85 -38 -87 -40 0 
-128 -89 -42 -91 -44 0 
-131 -93 -46 -95 -48 0 
-98 -49 -2 -51 -52 0 
-101 -53 -6 -55 -56 0 
-104 -57 -10 -59 -60 0 
-107 -61 -14 -63 -64 0 
-110 -65 -18 -67 -68 0 
-113 -69 -22 -71 -72 0 
-116 -73 -26 -75 -76 0 
-119 -77 -30 -79 -80 0 
-122 -81 -34 -83 -84 0 
-125 -85 -38 -87 -88 0 
-128 -89 -42 -91 -92 0 
-131 -93 -46 -95 -96 0 
-98 -49 -50 -3 -52 0 
-101 -53 -54 -7 -56 0 
-104 -57 -58 -11 -60 0 
-107 -61 -62 -15 -64 0 
-110 -65 -66 -19 -68 0 
-113 -69 -70 -23 -72 0 
-116 -73 -74 -27 -76 0 
-119 -77 -78 -31 -80 0 
-122 -81 -82 -35 -84 0 
-125 -85 -86 -39 -88 0 
-128 -89 -90 -43 -92 0 
-131 -93 -94 -47 -96 0 
-98 -49 -50 -51 -4 0 
-101 -53 -54 -55 -8 0 
-104 -57 -58 -59 -12 0 
-107 -61 -62 -63 -16 0 
-110 -65 -66 -67 -20 0 
-113 -69 -70 -71 -24 0 
-116 -73 -74 -75 -28 0 
-119 -77 -78 -79 -32 0 
-122 -81 -82 -83 -36 0 
-125 -85 -86 -87 -40 0 
-128 -89 -90 -91 -44 0 
-131 -93 -94 -95 -48 0 
-99 -1 -2 -3 -4 0 
-102 -5 -6 -7 -8 0 
-105 -9 -10 -11 -12 0 
-108 -13 -14 -15 -16 0 
-111 -17 -18 -19 -20 0 
-114 -21 -22 -23 -24 0 
-117 -25 -26 -27 -28 0 
-120 -29 -30 -31 -32 0 
-123 -33 -34 -35 -36 0 
-126 -37 -38 -39 -40 0 
-129 -41 -42 -43 -44 0 
-132 -45 -46 -47 -48 0 
-99 -1 -2 -51 -4 0 
-102 -5 -6 -55 -8 0 
-105 -9 -10 -59 -12 0 
-108 -13 -14 -63 -16 0 
-111 -17 -18 -67 -20 0 
-114 -21 -22 -71 -24 0 
-117 -25 -26 -75 -28 0 
-120 -29 -30 -79 -32 0 
-123 -33 -34 -83 -36 0 
-126 -37 -38 -87 -40 0 
-129 -41 -42 -91 -44 0 
-132 -45 -46 -95 -48 0 
-99 -1 -50 -3 -52 0 
-102 -5 -54 -7 -56 0 
-105 -9 -58 -11 -60 0 
-108 -13 -62 -15 -64 0 
-111 -17 -66 -19 -68 0 
-114 -21 -70 -23 -72 0 
-117 -25 -74 -27 -76 0 
-120 -29 -78 -31 -80 0 
-123 -33 -82 -35 -84 0 
-126 -37 -86 -39 -88 0 
-129 -41 -90 -43 -92 0 
-132 -45 -94 -47 -96 0 
-99 -1 -50 -51 -52 0 
-102 -5 -54 -55 -56 0 
-105 -9 -58 -59 -60 0 
-108 -13 -62 -63 -64 0 
-111 -17 -66 -67 -68 0 
-114 -21 -70 -71 -72 0 
-117 -25 -74 -75 -76 0 
-120 -29 -78 -79 -80 0 
-123 -33 -82 -83 -84 0 
-126 -37 -86 -87 -88 0 
-129 -41 -90 -91 -92 0 
-132 -45 -94 -95 -96 0 
-99 -49 -2 -3 -4 0 
-102 -53 -6 -7 -8 0 
-105 -57 -10 -11 -12 0 
-108 -61 -14 -15 -16 0 
-111 -65 -18 -19 -20 0 
-114 -69 -22 -23 -24 0 
-117 -73 -26 -27 -28 0 
-120 -77 -30 -31 -32 0 
-123 -81 -34 -35 -36 0 
-126 -85 -38 -39 -40 0 
-129 -89 -42 -43 -44 0 
-132 -93 -46 -47 -48 0 
-99 -49 -2 -51 -4 0 
-102 -53 -6 -55 -8 0 
-105 -57 -10 -59 -12 0 
-108 -61 -14 -63 -16 0 
-111 -65 -18 -67 -20 0 
-114 -69 -22 -71 -24 0 
-117 -73 -26 -75 -28 0 
-120 -77 -30 -79 -32 0 
-123 -81 -34 -83 -36 0 
-126 -85 -38 -87 -40 0 
-129 -89 -42 -91 -44 0 
-132 -93 -46 -95 -48 0 
-99 -49 -50 -3 -52 0 
-102 -53 -54 -7 -56 0 
-105 -57 -58 -11 -60 0 
-108 -61 -62 -15 -64 0 
-111 -65 -66 -19 -68 0 
-114 -69 -70 -23 -72 0 
-117 -73 -74 -27 -76 0 
-120 -77 -78 -31 -80 0 
-123 -81 -82 -35 -84 0 
-126 -85 -86 -39 -88 0 
-129 -89 -90 -43 -92 0 
-132 -93 -94 -47 -96 0 
-99 -49 -50 -51 -52 0 
-102 -53 -54 -55 -56 0 
-105 -57 -58 -59 -60 0 
-108 -61 -62 -63 -64 0 
-111 -65 -66 -67 -68 0 
-114 -69 -70 -71 -72 0 
-117 -73 -74 -75 -76 0 
-120 -77 -78 -79 -80 0 
-123 -81 -82 -83 -84 0 
-126 -85 -86 -87 -88 0 
-129 -89 -90 -91 -92 0 
-132 -93 -94 -95 -96 0 
229 230 231 232 233 234 235 236 237 238 239 240 0 
277 278 279 280 281 282 283 284 285 286 287 288 0 
289 291 293 295 297 299 301 303 305 307 309 311 0 
337 338 339 340 341 342 343 344 345 346 347 348 0 
349 351 353 355 357 359 361 363 365 367 369 371 0 
373 375 377 379 381 383 385 387 389 391 393 395 0 
145 146 147 148 149 150 151 152 153 154 155 156 0 
157 159 161 163 165 167 169 171 173 175 177 179 0 
193 194 195 196 197 198 199 200 201 202 203 204 0 
205 207 209 211 213 215 217 219 221 223 225 227 0 
241 242 243 244 245 246 247 248 249 250 251 252 0 
253 255 257 259 261 263 265 267 269 271 273 275 0 
313 315 317 319 321 323 325 327 329 331 333 335 0 
374 376 378 380 382 384 386 388 390 392 394 396 0 
133 134 135 136 137 138 139 140 141 142 143 144 0 
158 160 162 164 166 168 170 172 174 176 178 180 0 
181 182 183 184 185 186 187 188 189 190 191 192 0 
206 208 210 212 214 216 218 220 222 224 226 228 0 
254 256 258 260 262 264 266 268 270 272 274 276 0 
290 292 294 296 298 300 302 304 306 308 310 312 0 
314 316 318 320 322 324 326 328 330 332 334 336 0 
350 352 354 356 358 360 362 364 366 368 370 372 0 
-229 97 0 
-230 100 0 
-231 103 0 
-232 106 0 
-233 109 0 
-234 112 0 
-235 115 0 
-236 118 0 
-237 121 0 
-238 124 0 
-239 127 0 
-240 130 0 
-277 97 0 
-278 100 0 
-279 103 0 
-280 106 0 
-281 109 0 
-282 112 0 
-283 115 0 
-284 118 0 
-285 121 0 
-286 124 0 
-287 127 0 
-288 130 0 
-289 97 0 
-291 100 0 
-293 103 0 
-295 106 0 
-297 109 0 
-299 112 0 
-301 115 0 
-303 118 0 
-305 121 0 
-307 124 0 
-309 127 0 
-311 130 0 
-337 97 0 
-338 100 0 
-339 103 0 
-340 106 0 
-341 109 0 
-342 112 0 
-343 115 0 
-344 118 0 
-345 121 0 
-346 124 0 
-347 127 0 
-348 130 0 
-349 97 0 
-351 100 0 
-353 103 0 
-355 106 0 
-357 109 0 
-359 112 0 
-361 115 0 
-363 118 0 
-365 121 0 
-367 124 0 
-369 127 0 
-371 130 0 
-373 97 0 
-375 100 0 
-377 103 0 
-379 106 0 
-381 109 0 
-383 112 0 
-385 115 0 
-387 118 0 
-389 121 0 
-391 124 0 
-393 127 0 
-395 130 0 
-145 98 0 
-146 101 0 
-147 104 0 
-148 107 0 
-149 110 0 
-150 113 0 
-151 116 0 
-152 119 0 
-153 122 0 
-154 125 0 
-155 128 0 
-156 131 0 
-157 98 0 
-159 101 0 
-161 104 0 
-163 107 0 
-165 110 0 
-167 113 0 
-169 116 0 
-171 119 0 
-173 122 0 
-175 125 0 
-177 128 0 
-179 131 0 
-193 98 0 
-194 101 0 
-195 104 0 
-196 107 0 
-197 110 0 
-198 113 0 
-199 116 0 
-200 119 0 
-201 122 0 
-202 125 0 
-203 128 0 
-204 131 0 
-205 98 0 
-207 101 0 
-209 104 0 
-211 107 0 
-213 110 0 
-215 113 0 
-217 116 0 
-219 119 0 
-221 122 0 
-223 125 0 
-225 128 0 
-227 131 0 
-241 98 0 
-242 101 0 
-243 104 0 
-244 107 0 
-245 110 0 
-246 113 0 
-247 116 0 
-248 119 0 
-249 122 0 
-250 125 0 
-251 128 0 
-252 131 0 
-253 98 0 
-255 101 0 
-257 104 0 
-259 107 0 
-261 110 0 
-263 113 0 
-265 116 0 
-267 119 0 
-269 122 0 
-271 125 0 
-273 128 0 
-275 131 0 
-313 98 0 
-315 101 0 
-317 104 0 
-319 107 0 
-321 110 0 
-323 113 0 
-325 116 0 
-327 119 0 
-329 122 0 
-331 125 0 
-333 128 0 
-335 131 0 
-374 98 0 
-376 101 0 
-378 104 0 
-380 107 0 
-382 110 0 
-384 113 0 
-386 116 0 
-388 119 0 
-390 122 0 
-392 125 0 
-394 128 0 
-396 131 0 
-133 99 0 
-134 102 0 
-135 105 0 
-136 108 0 
-137 111 0 
-138 114 0 
-139 117 0 
-140 120 0 
-141 123 0 
-142 126 0 
-143 129 0 
-144 132 0 
-158 99 0 
-160 102 0 
-162 105 0 
-164 108 0 
-166 111 0 
-168 114 0 
-170 117 0 
-172 120 0 
-174 123 0 
-176 126 0 
-178 129 0 
-180 132 0 
-181 99 0 
-182 102 0 
-183 105 0 
-184 108 0 
-185 111 0 
-186 114 0 
-187 117 0 
-188 120 0 
-189 123 0 
-190 126 0 
-191 129 0 
-192 132 0 
-206 99 0 
-208 102 0 
-210 105 0 
-212 108 0 
-214 111 0 
-216 114 0 
-218 117 0 
-220 120 0 
-222 123 0 
-224 126 0 
-226 129 0 
-228 132 0 
-254 99 0 
-256 102 0 
-258 105 0 
-260 108 0 
-262 111 0 
-264 114 0 
-266 117 0 
-268 120 0 
-270 123 0 
-272 126 0 
-274 129 0 
-276 132 0 
-290 99 0 
-292 102 0 
-294 105 0 
-296 108 0 
-298 111 0 
-300 114 0 
-302 117 0 
-304 120 0 
-306 123 0 
-308 126 0 
-310 129 0 
-312 132 0 
-314 99 0 
-316 102 0 
-318 105 0 
-320 108 0 
-322 111 0 
-324 114 0 
-326 117 0 
-328 120 0 
-330 123 0 
-332 126 0 
-334 129 0 
-336 132 0 
-350 99 0 
-352 102 0 
-354 105 0 
-356 108 0 
-358 111 0 
-360 114 0 
-362 117 0 
-364 120 0 
-366 123 0 
-368 126 0 
-370 129 0 
-372 132 0 
-229 1 0 
-230 5 0 
-231 9 0 
-232 13 0 
-233 17 0 
-234 21 0 
-235 25 0 
-236 29 0 
-237 33 0 
-238 37 0 
-239 41 0 
-240 45 0 
-229 50 0 
-230 54 0 
-231 58 0 
-232 62 0 
-233 66 0 
-234 70 0 
-235 74 0 
-236 78 0 
-237 82 0 
-238 86 0 
-239 90 0 
-240 94 0 
-229 51 0 
-230 55 0 
-231 59 0 
-232 63 0 
-233 67 0 
-234 71 0 
-235 75 0 
-236 79 0 
-237 83 0 
-238 87 0 
-239 91 0 
-240 95 0 
-229 52 0 
-230 56 0 
-231 60 0 
-232 64 0 
-233 68 0 
-234 72 0 
-235 76 0 
-236 80 0 
-237 84 0 
-238 88 0 
-239 92 0 
-240 96 0 
-277 49 0 
-278 53 0 
-279 57 0 
-280 61 0 
-281 65 0 
-282 69 0 
-283 73 0 
-284 77 0 
-285 81 0 
-286 85 0 
-287 89 0 
-288 93 0 
-277 2 0 
-278 6 0 
-279 10 0 
-280 14 0 
-281 18 0 
-282 22 0 
-283 26 0 
-284 30 0 
-285 34 0 
-286 38 0 
-287 42 0 
-288 46 0 
-277 51 0 
-278 55 0 
-279 59 0 
-280 63 0 
-281 67 0 
-282 71 0 
-283 75 0 
-284 79 0 
-285 83 0 
-286 87 0 
-287 91 0 
-288 95 0 
-277 4 0 
-278 8 0 
-279 12 0 
-280 16 0 
-281 20 0 
-282 24 0 
-283 28 0 
-284 32 0 
-285 36 0 
-286 40 0 
-287 44 0 
-288 48 0 
-289 49 0 
-291 53 0 
-293 57 0 
-295 61 0 
-297 65 0 
-299 69 0 
-301 73 0 
-303 77 0 
-305 81 0 
-307 85 0 
-309 89 0 
-311 93 0 
-289 2 0 
-291 6 0 
-293 10 0 
-295 14 0 
-297 18 0 
-299 22 0 
-301 26 0 
-303 30 0 
-305 34 0 
-307 38 0 
-309 42 0 
-311 46 0 
-289 51 0 
-291 55 0 
-293 59 0 
-295 63 0 
-297 67 0 
-299 71 0 
-301 75 0 
-303 79 0 
-305 83 0 
-307 87 0 
-309 91 0 
-311 95 0 
-289 52 0 
-291 56 0 
-293 60 0 
-295 64 0 
-297 68 0 
-299 72 0 
-301 76 0 
-303 80 0 
-305 84 0 
-307 88 0 
-309 92 0 
-311 96 0 
-337 49 0 
-338 53 0 
-339 57 0 
-340 61 0 
-341 65 0 
-342 69 0 
-343 73 0 
-344 77 0 
-345 81 0 
-346 85 0 
-347 89 0 
-348 93 0 
-337 50 0 
-338 54 0 
-339 58 0 
-340 62 0 
-341 66 0 
-342 70 0 
-343 74 0 
-344 78 0 
-345 82 0 
-346 86 0 
-347 90 0 
-348 94 0 
-337 3 0 
-338 7 0 
-339 11 0 
-340 15 0 
-341 19 0 
-342 23 0 
-343 27 0 
-344 31 0 
-345 35 0 
-346 39 0 
-347 43 0 
-348 47 0 
-337 52 0 
-338 56 0 
-339 60 0 
-340 64 0 
-341 68 0 
-342 72 0 
-343 76 0 
-344 80 0 
-345 84 0 
-346 88 0 
-347 92 0 
-348 96 0 
-349 49 0 
-351 53 0 
-353 57 0 
-355 61 0 
-357 65 0 
-359 69 0 
-361 73 0 
-363 77 0 
-365 81 0 
-367 85 0 
-369 89 0 
-371 93 0 
-349 50 0 
-351 54 0 
-353 58 0 
-355 62 0 
-357 66 0 
-359 70 0 
-361 74 0 
-363 78 0 
-365 82 0 
-367 86 0 
-369 90 0 
-371 94 0 
-349 51 0 
-351 55 0 
-353 59 0 
-355 63 0 
-357 67 0 
-359 71 0 
-361 75 0 
-363 79 0 
-365 83 0 
-367 87 0 
-369 91 0 
-371 95 0 
-349 4 0 
-351 8 0 
-353 12 0 
-355 16 0 
-357 20 0 
-359 24 0 
-361 28 0 
-363 32 0 
-365 36 0 
-367 40 0 
-369 44 0 
-371 48 0 
-373 49 0 
-375 53 0 
-377 57 0 
-379 61 0 
-381 65 0 
-383 69 0 
-385 73 0 
-387 77 0 
-389 81 0 
-391 85 0 
-393 89 0 
-395 93 0 
-373 50 0 
-375 54 0 
-377 58 0 
-379 62 0 
-381 66 0 
-383 70 0 
-385 74 0 
-387 78 0 
-389 82 0 
-391 86 0 
-393 90 0 
-395 94 0 
-373 51 0 
-375 55 0 
-377 59 0 
-379 63 0 
-381 67 0 
-383 71 0 
-385 75 0 
-387 79 0 
-389 83 0 
-391 87 0 
-393 91 0 
-395 95 0 
-373 52 0 
-375 56 0 
-377 60 0 
-379 64 0 
-381 68 0 
-383 72 0 
-385 76 0 
-387 80 0 
-389 84 0 
-391 88 0 
-393 92 0 
-395 96 0 
-145 1 0 
-146 5 0 
-147 9 0 
-148 13 0 
-149 17 0 
-150 21 0 
-151 25 0 
-152 29 0 
-153 33 0 
-154 37 0 
-155 41 0 
-156 45 0 
-145 2 0 
-146 6 0 
-147 10 0 
-148 14 0 
-149 18 0 
-150 22 0 
-151 26 0 
-152 30 0 
-153 34 0 
-154 38 0 
-155 42 0 
-156 46 0 
-145 51 0 
-146 55 0 
-147 59 0 
-148 63 0 
-149 67 0 
-150 71 0 
-151 75 0 
-152 79 0 
-153 83 0 
-154 87 0 
-155 91 0 
-156 95 0 
-145 4 0 
-146 8 0 
-147 12 0 
-148 16 0 
-149 20 0 
-150 24 0 
-151 28 0 
-152 32 0 
-153 36 0 
-154 40 0 
-155 44 0 
-156 48 0 
-157 1 0 
-159 5 0 
-161 9 0 
-163 13 0 
-165 17 0 
-167 21 0 
-169 25 0 
-171 29 0 
-173 33 0 
-175 37 0 
-177 41 0 
-179 45 0 
-157 2 0 
-159 6 0 
-161 10 0 
-163 14 0 
-165 18 0 
-167 22 0 
-169 26 0 
-171 30 0 
-173 34 0 
-175 38 0 
-177 42 0 
-179 46 0 
-157 51 0 
-159 55 0 
-161 59 0 
-163 63 0 
-165 67 0 
-167 71 0 
-169 75 0 
-171 79 0 
-173 83 0 
-175 87 0 
-177 91 0 
-179 95 0 
-157 52 0 
-159 56 0 
-161 60 0 
-163 64 0 
-165 68 0 
-167 72 0 
-169 76 0 
-171 80 0 
-173 84 0 
-175 88 0 
-177 92 0 
-179 96 0 
-193 1 0 
-194 5 0 
-195 9 0 
-196 13 0 
-197 17 0 
-198 21 0 
-199 25 0 
-200 29 0 
-201 33 0 
-202 37 0 
-203 41 0 
-204 45 0 
-193 50 0 
-194 54 0 
-195 58 0 
-196 62 0 
-197 66 0 
-198 70 0 
-199 74 0 
-200 78 0 
-201 82 0 
-202 86 0 
-203 90 0 
-204 94 0 
-193 3 0 
-194 7 0 
-195 11 0 
-196 15 0 
-197 19 0 
-198 23 0 
-199 27 0 
-200 31 0 
-201 35 0 
-202 39 0 
-203 43 0 
-204 47 0 
-193 52 0 
-194 56 0 
-195 60 0 
-196 64 0 
-197 68 0 
-198 72 0 
-199 76 0 
-200 80 0 
-201 84 0 
-202 88 0 
-203 92 0 
-204 96 0 
-205 1 0 
-207 5 0 
-209 9 0 
-211 13 0 
-213 17 0 
-215 21 0 
-217 25 0 
-219 29 0 
-221 33 0 
-223 37 0 
-225 41 0 
-227 45 0 
-205 50 0 
-207 54 0 
-209 58 0 
-211 62 0 
-213 66 0 
-215 70 0 
-217 74 0 
-219 78 0 
-221 82 0 
-223 86 0 
-225 90 0 
-227 94 0 
-205 51 0 
-207 55 0 
-209 59 0 
-211 63 0 
-213 67 0 
-215 71 0 
-217 75 0 
-219 79 0 
-221 83 0 
-223 87 0 
-225 91 0 
-227 95 0 
-205 4 0 
-207 8 0 
-209 12 0 
-211 16 0 
-213 20 0 
-215 24 0 
-217 28 0 
-219 32 0 
-221 36 0 
-223 40 0 
-225 44 0 
-227 48 0 
-241 49 0 
-242 53 0 
-243 57 0 
-244 61 0 
-245 65 0 
-246 69 0 
-247 73 0 
-248 77 0 
-249 81 0 
-250 85 0 
-251 89 0 
-252 93 0 
-241 2 0 
-242 6 0 
-243 10 0 
-244 14 0 
-245 18 0 
-246 22 0 
-247 26 0 
-248 30 0 
-249 34 0 
-250 38 0 
-251 42 0 
-252 46 0 
-241 3 0 
-242 7 0 
-243 11 0 
-244 15 0 
-245 19 0 
-246 23 0 
-247 27 0 
-248 31 0 
-249 35 0 
-250 39 0 
-251 43 0 
-252 47 0 
-241 4 0 
-242 8 0 
-243 12 0 
-244 16 0 
-245 20 0 
-246 24 0 
-247 28 0 
-248 32 0 
-249 36 0 
-250 40 0 
-251 44 0 
-252 48 0 
-253 49 0 
-255 53 0 
-257 57 0 
-259 61 0 
-261 65 0 
-263 69 0 
-265 73 0 
-267 77 0 
-269 81 0 
-271 85 0 
-273 89 0 
-275 93 0 
-253 2 0 
-255 6 0 
-257 10 0 
-259 14 0 
-261 18 0 
-263 22 0 
-265 26 0 
-267 30 0 
-269 34 0 
-271 38 0 
-273 42 0 
-275 46 0 
-253 3 0 
-255 7 0 
-257 11 0 
-259 15 0 
-261 19 0 
-263 23 0 
-265 27 0 
-267 31 0 
-269 35 0 
-271 39 0 
-273 43 0 
-275 47 0 
-253 52 0 
-255 56 0 
-257 60 0 
-259 64 0 
-261 68 0 
-263 72 0 
-265 76 0 
-267 80 0 
-269 84 0 
-271 88 0 
-273 92 0 
-275 96 0 
-313 49 0 
-315 53 0 
-317 57 0 
-319 61 0 
-321 65 0 
-323 69 0 
-325 73 0 
-327 77 0 
-329 81 0 
-331 85 0 
-333 89 0 
-335 93 0 
-313 50 0 
-315 54 0 
-317 58 0 
-319 62 0 
-321 66 0 
-323 70 0 
-325 74 0 
-327 78 0 
-329 82 0 
-331 86 0 
-333 90 0 
-335 94 0 
-313 3 0 
-315 7 0 
-317 11 0 
-319 15 0 
-321 19 0 
-323 23 0 
-325 27 0 
-327 31 0 
-329 35 0 
-331 39 0 
-333 43 0 
-335 47 0 
-313 4 0 
-315 8 0 
-317 12 0 
-319 16 0 
-321 20 0 
-323 24 0 
-325 28 0 
-327 32 0 
-329 36 0 
-331 40 0 
-333 44 0 
-335 48 0 
-374 49 0 
-376 53 0 
-378 57 0 
-380 61 0 
-382 65 0 
-384 69 0 
-386 73 0 
-388 77 0 
-390 81 0 
-392 85 0 
-394 89 0 
-396 93 0 
-374 50 0 
-376 54 0 
-378 58 0 
-380 62 0 
-382 66 0 
-384 70 0 
-386 74 0 
-388 78 0 
-390 82 0 
-392 86 0 
-394 90 0 
-396 94 0 
-374 51 0 
-376 55 0 
-378 59 0 
-380 63 0 
-382 67 0 
-384 71 0 
-386 75 0 
-388 79 0 
-390 83 0 
-392 87 0 
-394 91 0 
-396 95 0 
-374 52 0 
-376 56 0 
-378 60 0 
-380 64 0 
-382 68 0 
-384 72 0 
-386 76 0 
-388 80 0 
-390 84 0 
-392 88 0 
-394 92 0 
-396 96 0 
-133 1 0 
-134 5 0 
-135 9 0 
-136 13 0 
-137 17 0 
-138 21 0 
-139 25 0 
-140 29 0 
-141 33 0 
-142 37 0 
-143 41 0 
-144 45 0 
-133 2 0 
-134 6 0 
-135 10 0 
-136 14 0 
-137 18 0 
-138 22 0 
-139 26 0 
-140 30 0 
-141 34 0 
-142 38 0 
-143 42 0 
-144 46 0 
-133 3 0 
-134 7 0 
-135 11 0 
-136 15 0 
-137 19 0 
-138 23 0 
-139 27 0 
-140 31 0 
-141 35 0 
-142 39 0 
-143 43 0 
-144 47 0 
-133 52 0 
-134 56 0 
-135 60 0 
-136 64 0 
-137 68 0 
-138 72 0 
-139 76 0 
-140 80 0 
-141 84 0 
-142 88 0 
-143 92 0 
-144 96 0 
-158 1 0 
-160 5 0 
-162 9 0 
-164 13 0 
-166 17 0 
-168 21 0 
-170 25 0 
-172 29 0 
-174 33 0 
-176 37 0 
-178 41 0 
-180 45 0 
-158 2 0 
-160 6 0 
-162 10 0 
-164 14 0 
-166 18 0 
-168 22 0 
-170 26 0 
-172 30 0 
-174 34 0 
-176 38 0 
-178 42 0 
-180 46 0 
-158 51 0 
-160 55 0 
-162 59 0 
-164 63 0 
-166 67 0 
-168 71 0 
-170 75 0 
-172 79 0 
-174 83 0 
-176 87 0 
-178 91 0 
-180 95 0 
-158 52 0 
-160 56 0 
-162 60 0 
-164 64 0 
-166 68 0 
-168 72 0 
-170 76 0 
-172 80 0 
-174 84 0 
-176 88 0 
-178 92 0 
-180 96 0 
-181 1 0 
-182 5 0 
-183 9 0 
-184 13 0 
-185 17 0 
-186 21 0 
-187 25 0 
-188 29 0 
-189 33 0 
-190 37 0 
-191 41 0 
-192 45 0 
-181 50 0 
-182 54 0 
-183 58 0 
-184 62 0 
-185 66 0 
-186 70 0 
-187 74 0 
-188 78 0 
-189 82 0 
-190 86 0 
-191 90 0 
-192 94 0 
-181 3 0 
-182 7 0 
-183 11 0 
-184 15 0 
-185 19 0 
-186 23 0 
-187 27 0 
-188 31 0 
-189 35 0 
-190 39 0 
-191 43 0 
-192 47 0 
-181 4 0 
-182 8 0 
-183 12 0 
-184 16 0 
-185 20 0 
-186 24 0 
-187 28 0 
-188 32 0 
-189 36 0 
-190 40 0 
-191 44 0 
-192 48 0 
-206 1 0 
-208 5 0 
-210 9 0 
-212 13 0 
-214 17 0 
-216 21 0 
-218 25 0 
-220 29 0 
-222 33 0 
-224 37 0 
-226 41 0 
-228 45 0 
-206 50 0 
-208 54 0 
-210 58 0 
-212 62 0 
-214 66 0 
-216 70 0 
-218 74 0 
-220 78 0 
-222 82 0 
-224 86 0 
-226 90 0 
-228 94 0 
-206 51 0 
-208 55 0 
-210 59 0 
-212 63 0 
-214 67 0 
-216 71 0 
-218 75 0 
-220 79 0 
-222 83 0 
-224 87 0 
-226 91 0 
-228 95 0 
-206 4 0 
-208 8 0 
-210 12 0 
-212 16 0 
-214 20 0 
-216 24 0 
-218 28 0 
-220 32 0 
-222 36 0 
-224 40 0 
-226 44 0 
-228 48 0 
-254 49 0 
-256 53 0 
-258 57 0 
-260 61 0 
-262 65 0 
-264 69 0 
-266 73 0 
-268 77 0 
-270 81 0 
-272 85 0 
-274 89 0 
-276 93 0 
-254 2 0 
-256 6 0 
-258 10 0 
-260 14 0 
-262 18 0 
-264 22 0 
-266 26 0 
-268 30 0 
-270 34 0 
-272 38 0 
-274 42 0 
-276 46 0 
-254 3 0 
-256 7 0 
-258 11 0 
-260 15 0 
-262 19 0 
-264 23 0 
-266 27 0 
-268 31 0 
-270 35 0 
-272 39 0 
-274 43 0 
-276 47 0 
-254 52 0 
-256 56 0 
-258 60 0 
-260 64 0 
-262 68 0 
-264 72 0 
-266 76 0 
-268 80 0 
-270 84 0 
-272 88 0 
-274 92 0 
-276 96 0 
-290 49 0 
-292 53 0 
-294 57 0 
-296 61 0 
-298 65 0 
-300 69 0 
-302 73 0 
-304 77 0 
-306 81 0 
-308 85 0 
-310 89 0 
-312 93 0 
-290 2 0 
-292 6 0 
-294 10 0 
-296 14 0 
-298 18 0 
-300 22 0 
-302 26 0 
-304 30 0 
-306 34 0 
-308 38 0 
-310 42 0 
-312 46 0 
-290 51 0 
-292 55 0 
-294 59 0 
-296 63 0 
-298 67 0 
-300 71 0 
-302 75 0 
-304 79 0 
-306 83 0 
-308 87 0 
-310 91 0 
-312 95 0 
-290 52 0 
-292 56 0 
-294 60 0 
-296 64 0 
-298 68 0 
-300 72 0 
-302 76 0 
-304 80 0 
-306 84 0 
-308 88 0 
-310 92 0 
-312 96 0 
-314 49 0 
-316 53 0 
-318 57 0 
-320 61 0 
-322 65 0 
-324 69 0 
-326 73 0 
-328 77 0 
-330 81 0 
-332 85 0 
-334 89 0 
-336 93 0 
-314 50 0 
-316 54 0 
-318 58 0 
-320 62 0 
-322 66 0 
-324 70 0 
-326 74 0 
-328 78 0 
-330 82 0 
-332 86 0 
-334 90 0 
-336 94 0 
-314 3 0 
-316 7 0 
-318 11 0 
-320 15 0 
-322 19 0 
-324 23 0 
-326 27 0 
-328 31 0 
-330 35 0 
-332 39 0 
-334 43 0 
-336 47 0 
-314 4 0 
-316 8 0 
-318 12 0 
-320 16 0 
-322 20 0 
-324 24 0 
-326 28 0 
-328 32 0 
-330 36 0 
-332 40 0 
-334 44 0 
-336 48 0 
-350 49 0 
-352 53 0 
-354 57 0 
-356 61 0 
-358 65 0 
-360 69 0 
-362 73 0 
-364 77 0 
-366 81 0 
-368 85 0 
-370 89 0 
-372 93 0 
-350 50 0 
-352 54 0 
-354 58 0 
-356 62 0 
-358 66 0 
-360 70 0 
-362 74 0 
-364 78 0 
-366 82 0 
-368 86 0 
-370 90 0 
-372 94 0 
-350 51 0 
-352 55 0 
-354 59 0 
-356 63 0 
-358 67 0 
-360 71 0 
-362 75 0 
-364 79 0 
-366 83 0 
-368 87 0 
-370 91 0 
-372 95 0 
-350 4 0 
-352 8 0 
-354 12 0 
-356 16 0 
-358 20 0 
-360 24 0 
-362 28 0 
-364 32 0 
-366 36 0 
-368 40 0 
-370 44 0 
-372 48 0 
